TIME 50
11338
52104
10139
52104
11142
52104
17546
52104
17400
52104
17629
52104
17180
52104
17010
52104
17034
52104
16818
52104
TIME 100
16818
52104
18349
52104
17564
52104
17845
52104
18396
52104
17938
52104
17536
52104
17557
52104
18697
52104
18519
52104
TIME 150
18494
52104
18494
52104
17738
52104
17611
52104
17611
52104
17321
52104
17730
52104
18381
52104
17236
52104
17510
52104
TIME 200
18668
52104
17819
52104
17819
52104
17750
52104
17750
52104
17948
52104
18227
52104
17053
52104
17402
52104
17027
52104
TIME 250
17027
52104
17082
52104
19550
52104
19550
52104
19852
52104
19852
52104
19852
52104
19213
52104
19399
52104
20266
52104
TIME 300
16973
52104
12732
52104
15585
52104
10802
52104
12800
52104
13118
52104
14535
52104
12987
52104
15505
52104
12936
52104
